50
    1    79    74
    2    77    71
    3    58    61
    4    64    58
    5    36    35
    6    86    92
    7    59    60
    8    74    70
    9    87    84
   10    82    89
   11     7     6
   12    65    66
   13    21    19
   14    48    39
   15    89    83
   16    33    27
   17    89    96
   18    14    11
   19    27    28
   20    43    33
   21    86    76
   22    58    54
   23    85    79
   24    95    89
   25     1     7
   26    19    27
   27    27    33
   28    32    26
   29    17    24
   30    63    62
   31   100    96
   32    68    70
   33    81    82
   34    20    16
   35    92    95
   36    62    60
   37    29    23
   38    40    35
   39    18    23
   40     9    17
   41    60    58
   42    83    88
   43    86    89
   44    18    20
   45    99    98
   46    53    45
   47    70    76
   48    76    76
   49    46    38
   50    60    63
1373
